(set-option :print-success true)
(set-option :produce-assignments true)
(set-option :produce-abducts true)
(set-option :incremental true)
(set-logic QF_UFLIA)
(set-option :sygus-core-connective false)
(declare-fun mul (Int Int ) Int)
(declare-fun i () Int)
(declare-fun div (Int Int ) Int)
(assert (< 1 i))
(assert (<= (- i 1) (+ (div i 2) (div i 2))))
(assert (= (mul (div i 2) 1) (div i 2)))
(assert (= (mul 1 (+ (div i 2) 1)) (+ (div i 2) 1)))
(assert (= (+ (mul (div i 2) (+ (div i 2) 1)) (mul 1 (+ (div i 2) 1))) (+ (+ (mul (div i 2) (div i 2)) (mul (div i 2) 1)) (mul 1 (+ (div i 2) 1)))))
(assert (<= 1 (mul (div i 2) (div i 2))))
(assert (<= 0 (- i 2)))
(get-abduct A (< i (mul (+ (div i 2) 1) (+ (div i 2) 1))))

